c Result of efficient AIG-to-CNF conversion using package CNF
p cnf 584 1573
2 -443 581 -583 0
-2 443 0
-2 -581 0
-2 583 0
3 580 -582 0
-3 -580 0
-3 582 0
4 579 -582 0
-4 -579 0
-4 582 0
5 582 -6 0
5 -582 -583 -102 0
-5 -582 102 0
-5 582 6 0
-5 -582 583 0
6 438 439 7 -8 0
6 -438 -439 7 -8 0
-6 8 0
-6 -438 439 0
-6 -7 0
-6 438 -439 0
-7 -440 -441 0
-7 440 441 0
7 440 -441 0
7 -440 441 0
8 434 435 9 -10 0
8 -434 -435 9 -10 0
-8 10 0
-8 -434 435 0
-8 -9 0
-8 434 -435 0
-9 -436 -437 0
-9 436 437 0
9 436 -437 0
9 -436 437 0
10 430 431 11 -12 0
10 -430 -431 11 -12 0
-10 12 0
-10 -430 431 0
-10 -11 0
-10 430 -431 0
-11 -432 -433 0
-11 432 433 0
11 432 -433 0
11 -432 433 0
12 426 427 13 -14 0
12 -426 -427 13 -14 0
-12 14 0
-12 -426 427 0
-12 -13 0
-12 426 -427 0
-13 -428 -429 0
-13 428 429 0
13 428 -429 0
13 -428 429 0
14 422 423 15 -16 0
14 -422 -423 15 -16 0
-14 16 0
-14 -422 423 0
-14 -15 0
-14 422 -423 0
-15 -424 -425 0
-15 424 425 0
15 424 -425 0
15 -424 425 0
16 418 419 17 -18 0
16 -418 -419 17 -18 0
-16 18 0
-16 -418 419 0
-16 -17 0
-16 418 -419 0
-17 -420 -421 0
-17 420 421 0
17 420 -421 0
17 -420 421 0
18 414 415 19 -20 0
18 -414 -415 19 -20 0
-18 20 0
-18 -414 415 0
-18 -19 0
-18 414 -415 0
-19 -416 -417 0
-19 416 417 0
19 416 -417 0
19 -416 417 0
20 410 411 21 -22 0
20 -410 -411 21 -22 0
-20 22 0
-20 -410 411 0
-20 -21 0
-20 410 -411 0
-21 -412 -413 0
-21 412 413 0
21 412 -413 0
21 -412 413 0
22 406 407 23 -24 0
22 -406 -407 23 -24 0
-22 24 0
-22 -406 407 0
-22 -23 0
-22 406 -407 0
-23 -408 -409 0
-23 408 409 0
23 408 -409 0
23 -408 409 0
24 402 403 25 -26 0
24 -402 -403 25 -26 0
-24 26 0
-24 -402 403 0
-24 -25 0
-24 402 -403 0
-25 -404 -405 0
-25 404 405 0
25 404 -405 0
25 -404 405 0
26 398 399 27 -28 0
26 -398 -399 27 -28 0
-26 28 0
-26 -398 399 0
-26 -27 0
-26 398 -399 0
-27 -400 -401 0
-27 400 401 0
27 400 -401 0
27 -400 401 0
28 393 394 29 -30 0
28 -393 -394 29 -30 0
-28 30 0
-28 -393 394 0
-28 -29 0
-28 393 -394 0
-29 -395 -396 0
-29 395 396 0
29 395 -396 0
29 -395 396 0
30 388 389 31 -32 0
30 -388 -389 31 -32 0
-30 32 0
-30 -388 389 0
-30 -31 0
-30 388 -389 0
-31 -390 -391 0
-31 390 391 0
31 390 -391 0
31 -390 391 0
32 383 384 33 -34 0
32 -383 -384 33 -34 0
-32 34 0
-32 -383 384 0
-32 -33 0
-32 383 -384 0
-33 -385 -386 0
-33 385 386 0
33 385 -386 0
33 -385 386 0
34 378 379 35 -36 0
34 -378 -379 35 -36 0
-34 36 0
-34 -378 379 0
-34 -35 0
-34 378 -379 0
-35 -380 -381 0
-35 380 381 0
35 380 -381 0
35 -380 381 0
36 373 374 37 -38 0
36 -373 -374 37 -38 0
-36 38 0
-36 -373 374 0
-36 -37 0
-36 373 -374 0
-37 -375 -376 0
-37 375 376 0
37 375 -376 0
37 -375 376 0
38 368 369 39 -40 0
38 -368 -369 39 -40 0
-38 40 0
-38 -368 369 0
-38 -39 0
-38 368 -369 0
-39 -370 -371 0
-39 370 371 0
39 370 -371 0
39 -370 371 0
40 363 364 41 -42 0
40 -363 -364 41 -42 0
-40 42 0
-40 -363 364 0
-40 -41 0
-40 363 -364 0
-41 -365 -366 0
-41 365 366 0
41 365 -366 0
41 -365 366 0
42 359 360 43 -44 0
42 -359 -360 43 -44 0
-42 44 0
-42 -359 360 0
-42 -43 0
-42 359 -360 0
-43 -361 -362 0
-43 361 362 0
43 361 -362 0
43 -361 362 0
44 354 355 45 -46 0
44 -354 -355 45 -46 0
-44 46 0
-44 -354 355 0
-44 -45 0
-44 354 -355 0
-45 -356 -357 0
-45 356 357 0
45 356 -357 0
45 -356 357 0
46 350 351 47 -48 0
46 -350 -351 47 -48 0
-46 48 0
-46 -350 351 0
-46 -47 0
-46 350 -351 0
-47 -352 -353 0
-47 352 353 0
47 352 -353 0
47 -352 353 0
48 346 347 49 -50 0
48 -346 -347 49 -50 0
-48 50 0
-48 -346 347 0
-48 -49 0
-48 346 -347 0
-49 -348 -349 0
-49 348 349 0
49 348 -349 0
49 -348 349 0
50 342 343 51 -52 0
50 -342 -343 51 -52 0
-50 52 0
-50 -342 343 0
-50 -51 0
-50 342 -343 0
-51 -344 -345 0
-51 344 345 0
51 344 -345 0
51 -344 345 0
52 337 338 53 -54 0
52 -337 -338 53 -54 0
-52 54 0
-52 -337 338 0
-52 -53 0
-52 337 -338 0
-53 -339 -340 0
-53 339 340 0
53 339 -340 0
53 -339 340 0
54 332 333 55 -56 0
54 -332 -333 55 -56 0
-54 56 0
-54 -332 333 0
-54 -55 0
-54 332 -333 0
-55 -334 -335 0
-55 334 335 0
55 334 -335 0
55 -334 335 0
56 326 327 57 -58 0
56 -326 -327 57 -58 0
-56 58 0
-56 -326 327 0
-56 -57 0
-56 326 -327 0
-57 -328 -329 0
-57 328 329 0
57 328 -329 0
57 -328 329 0
58 322 323 59 -60 0
58 -322 -323 59 -60 0
-58 60 0
-58 -322 323 0
-58 -59 0
-58 322 -323 0
-59 -324 -325 0
-59 324 325 0
59 324 -325 0
59 -324 325 0
60 317 318 61 -62 0
60 -317 -318 61 -62 0
-60 62 0
-60 -317 318 0
-60 -61 0
-60 317 -318 0
-61 -319 -320 0
-61 319 320 0
61 319 -320 0
61 -319 320 0
62 310 311 63 -64 0
62 -310 -311 63 -64 0
-62 64 0
-62 -310 311 0
-62 -63 0
-62 310 -311 0
-63 -312 -313 0
-63 312 313 0
63 312 -313 0
63 -312 313 0
64 -309 -314 -321 -65 0
-64 65 0
-64 309 0
-64 321 0
-64 314 0
65 321 331 358 -66 0
65 -321 -331 -358 -66 0
-65 -331 358 0
-65 321 -358 0
-65 66 0
-65 -321 331 0
66 358 377 382 -67 0
66 -358 -377 -382 -67 0
-66 -377 382 0
-66 358 -382 0
-66 67 0
-66 -358 377 0
67 311 318 382 -68 0
67 -311 -318 -382 -68 0
-67 -318 382 0
-67 311 -382 0
-67 68 0
-67 -311 318 0
68 318 323 327 -69 0
68 -318 -323 -327 -69 0
-68 -323 327 0
-68 318 -327 0
-68 69 0
-68 -318 323 0
69 327 335 340 -70 0
69 -327 -335 -340 -70 0
-69 -335 340 0
-69 327 -340 0
-69 70 0
-69 -327 335 0
70 340 345 349 -71 0
70 -340 -345 -349 -71 0
-70 -345 349 0
-70 340 -349 0
-70 71 0
-70 -340 345 0
71 349 351 355 -72 0
71 -349 -351 -355 -72 0
-71 -351 355 0
-71 349 -355 0
-71 72 0
-71 -349 351 0
72 355 362 364 -73 0
72 -355 -362 -364 -73 0
-72 -362 364 0
-72 355 -364 0
-72 73 0
-72 -355 362 0
73 364 369 374 -74 0
73 -364 -369 -374 -74 0
-73 -369 374 0
-73 364 -374 0
-73 74 0
-73 -364 369 0
74 374 379 384 -75 0
74 -374 -379 -384 -75 0
-74 -379 384 0
-74 374 -384 0
-74 75 0
-74 -374 379 0
75 384 389 394 -76 0
75 -384 -389 -394 -76 0
-75 -389 394 0
-75 384 -394 0
-75 76 0
-75 -384 389 0
76 394 399 405 -77 0
76 -394 -399 -405 -77 0
-76 -399 405 0
-76 394 -405 0
-76 77 0
-76 -394 399 0
77 405 409 413 -78 0
77 -405 -409 -413 -78 0
-77 -409 413 0
-77 405 -413 0
-77 78 0
-77 -405 409 0
78 413 415 421 -79 0
78 -413 -415 -421 -79 0
-78 -415 421 0
-78 413 -421 0
-78 79 0
-78 -413 415 0
79 421 425 429 -80 0
79 -421 -425 -429 -80 0
-79 -425 429 0
-79 421 -429 0
-79 80 0
-79 -421 425 0
80 429 433 437 -81 0
80 -429 -433 -437 -81 0
-80 -433 437 0
-80 429 -437 0
-80 81 0
-80 -429 433 0
81 -437 -441 -82 0
-81 437 0
-81 441 0
-81 82 0
82 307 308 -314 83 0
-82 -307 0
-82 -83 0
-82 314 0
-82 -308 0
-83 308 315 316 84 0
-83 -308 -315 -316 84 0
83 -315 316 0
83 308 -316 0
83 -84 0
83 -308 315 0
-84 315 330 336 85 0
-84 -315 -330 -336 85 0
84 -330 336 0
84 315 -336 0
84 -85 0
84 -315 330 0
-85 336 341 367 86 0
-85 -336 -341 -367 86 0
85 -341 367 0
85 336 -367 0
85 -86 0
85 -336 341 0
-86 367 372 387 87 0
-86 -367 -372 -387 87 0
86 -372 387 0
86 367 -387 0
86 -87 0
86 -367 372 0
-87 387 392 397 88 0
-87 -387 -392 -397 88 0
87 -392 397 0
87 387 -397 0
87 -88 0
87 -387 392 0
-88 313 320 397 89 0
-88 -313 -320 -397 89 0
88 -320 397 0
88 313 -397 0
88 -89 0
88 -313 320 0
-89 320 325 329 90 0
-89 -320 -325 -329 90 0
89 -325 329 0
89 320 -329 0
89 -90 0
89 -320 325 0
-90 329 333 338 91 0
-90 -329 -333 -338 91 0
90 -333 338 0
90 329 -338 0
90 -91 0
90 -329 333 0
-91 338 343 347 92 0
-91 -338 -343 -347 92 0
91 -343 347 0
91 338 -347 0
91 -92 0
91 -338 343 0
-92 347 353 357 93 0
-92 -347 -353 -357 93 0
92 -353 357 0
92 347 -357 0
92 -93 0
92 -347 353 0
-93 357 360 366 94 0
-93 -357 -360 -366 94 0
93 -360 366 0
93 357 -366 0
93 -94 0
93 -357 360 0
-94 366 371 376 95 0
-94 -366 -371 -376 95 0
94 -371 376 0
94 366 -376 0
94 -95 0
94 -366 371 0
-95 376 381 386 96 0
-95 -376 -381 -386 96 0
95 -381 386 0
95 376 -386 0
95 -96 0
95 -376 381 0
-96 386 391 396 97 0
-96 -386 -391 -396 97 0
96 -391 396 0
96 386 -396 0
96 -97 0
96 -386 391 0
-97 396 401 403 98 0
-97 -396 -401 -403 98 0
97 -401 403 0
97 396 -403 0
97 -98 0
97 -396 401 0
-98 403 407 411 99 0
-98 -403 -407 -411 99 0
98 -407 411 0
98 403 -411 0
98 -99 0
98 -403 407 0
-99 411 417 419 100 0
-99 -411 -417 -419 100 0
99 -417 419 0
99 411 -419 0
99 -100 0
99 -411 417 0
-100 419 423 427 101 0
-100 -419 -423 -427 101 0
100 -423 427 0
100 419 -427 0
100 -101 0
100 -419 423 0
-101 427 431 435 439 0
101 -439 0
101 -435 0
101 -427 0
101 -431 0
102 -451 580 103 303 0
102 451 -580 103 303 0
-102 -303 0
-102 451 580 0
-102 -103 0
-102 -451 -580 0
-103 310 104 105 107 0
-103 -310 -104 105 107 0
103 -107 0
103 310 -104 0
103 -105 0
103 -310 104 0
-104 -308 0
-104 -307 309 0
-104 307 447 0
104 307 308 -447 0
104 -307 308 -309 0
-105 -312 -106 0
-105 312 106 0
105 312 -106 0
105 -312 106 0
106 -308 0
106 307 -449 0
106 -307 309 0
-106 307 308 449 0
-106 -307 308 -309 0
-107 317 108 111 113 0
-107 -317 -108 111 113 0
107 -113 0
107 317 -108 0
107 -111 0
107 -317 108 0
-108 454 110 0
-108 454 -109 0
-108 453 109 -110 0
108 -454 -109 0
108 -454 110 0
108 -453 109 -110 0
109 -451 -452 0
-109 451 0
-109 452 0
110 -314 -315 0
-110 314 0
-110 315 0
-111 -319 -112 0
-111 319 112 0
111 319 -112 0
111 -319 112 0
112 -456 -109 0
112 -456 110 0
112 453 109 -110 0
-112 456 110 0
-112 456 -109 0
-112 -453 109 -110 0
-113 322 114 115 117 0
-113 -322 -114 115 117 0
113 -117 0
113 322 -114 0
113 -115 0
113 -322 114 0
-114 -451 459 0
-114 314 459 0
-114 -314 451 458 0
114 314 -459 0
114 -451 -459 0
114 -314 451 -458 0
-115 -324 -116 0
-115 324 116 0
115 324 -116 0
115 -324 116 0
116 314 -461 0
116 -451 -461 0
116 -314 451 458 0
-116 -451 461 0
-116 314 461 0
-116 -314 451 -458 0
-117 326 118 120 123 0
-117 -326 -118 120 123 0
117 -123 0
117 326 -118 0
117 -120 0
117 -326 118 0
-118 314 119 0
-118 463 119 0
118 -119 0
118 -314 -463 0
119 314 -106 -114 0
119 314 -108 -114 0
-119 -314 0
-119 114 0
-119 106 108 0
-120 -328 -121 0
-120 328 121 0
120 328 -121 0
120 -328 121 0
121 -465 -122 0
121 314 -122 0
-121 122 0
-121 -314 465 0
-122 314 104 116 0
-122 314 112 116 0
122 -314 0
122 -116 0
122 -104 -112 0
-123 332 124 129 131 0
-123 -332 -124 129 131 0
123 -131 0
123 332 -124 0
123 -129 0
123 -332 124 0
-124 125 -127 0
-124 331 469 0
-124 331 -127 0
-124 469 125 0
124 -331 -125 0
124 -469 127 0
125 -330 -126 0
-125 330 0
-125 126 0
126 -314 -463 0
-126 314 0
-126 463 0
127 -330 -128 0
-127 330 0
-127 128 0
128 -314 465 0
-128 314 0
-128 -465 0
-129 -334 -130 0
-129 334 130 0
129 334 -130 0
129 -334 130 0
130 -471 127 0
130 331 -125 0
130 331 -471 0
130 -125 127 0
-130 -331 -127 0
-130 471 125 0
-131 337 132 133 135 0
-131 -337 -132 133 135 0
131 -135 0
131 337 -132 0
131 -133 0
131 -337 132 0
-132 126 -128 0
-132 336 474 0
-132 336 -128 0
-132 474 126 0
132 -336 -126 0
132 -474 128 0
-133 -339 -134 0
-133 339 134 0
133 339 -134 0
133 -339 134 0
134 -476 128 0
134 336 -126 0
134 336 -476 0
134 -126 128 0
-134 -336 -128 0
-134 476 126 0
-135 342 136 139 142 0
-135 -342 -136 139 142 0
135 -142 0
135 342 -136 0
135 -139 0
135 -342 136 0
-136 -137 138 0
-136 479 137 0
136 -137 -138 0
136 -479 137 0
137 314 -341 0
-137 -314 0
-137 341 0
138 -130 -132 0
-138 130 0
-138 132 0
-139 -344 -140 0
-139 344 140 0
139 344 -140 0
139 -344 140 0
140 -137 -141 0
140 -481 137 0
-140 -137 141 0
-140 481 137 0
-141 124 134 0
141 -124 0
141 -134 0
-142 346 143 144 146 0
-142 -346 -143 144 146 0
142 -146 0
142 346 -143 0
142 -144 0
142 -346 143 0
-143 483 126 0
-143 -128 136 0
-143 483 136 0
-143 126 -128 0
143 -483 128 0
143 -126 -136 0
-144 -348 -145 0
-144 348 145 0
144 348 -145 0
144 -348 145 0
145 -485 -140 0
145 -126 128 0
145 -485 128 0
145 -126 -140 0
-145 485 126 0
-145 -128 140 0
-146 350 147 151 154 0
-146 -350 -147 151 154 0
146 -154 0
146 350 -147 0
146 -151 0
146 -350 147 0
-147 487 148 0
-147 -128 148 150 0
147 -148 0
147 -487 128 0
147 -487 -150 0
148 -483 -126 149 0
-148 483 0
-148 126 0
-148 -149 0
149 -451 465 0
-149 451 0
-149 -465 0
150 -451 -463 0
-150 451 0
-150 463 0
-151 -352 -152 0
-151 352 152 0
151 352 -152 0
151 -352 152 0
152 -489 153 0
152 -126 149 153 0
-152 -153 0
-152 489 126 0
-152 489 -149 0
153 485 -128 150 0
-153 -485 0
-153 128 0
-153 -150 0
-154 354 155 156 158 0
-154 -354 -155 156 158 0
154 -158 0
154 354 -155 0
154 -156 0
154 -354 155 0
-155 314 119 0
-155 491 119 0
155 -119 0
155 -314 -491 0
-156 -356 -157 0
-156 356 157 0
156 356 -157 0
156 -356 157 0
157 -493 -122 0
157 314 -122 0
-157 122 0
-157 -314 493 0
-158 359 159 160 162 0
-158 -359 -159 160 162 0
158 -162 0
158 359 -159 0
158 -160 0
158 -359 159 0
-159 -451 496 0
-159 314 496 0
-159 -314 451 495 0
159 314 -496 0
159 -451 -496 0
159 -314 451 -495 0
-160 -361 -161 0
-160 361 161 0
160 361 -161 0
160 -361 161 0
161 314 -498 0
161 -451 -498 0
161 -314 451 495 0
-161 -451 498 0
-161 314 498 0
-161 -314 451 -495 0
-162 363 163 167 170 0
-162 -363 -163 167 170 0
162 -170 0
162 363 -163 0
162 -167 0
162 -363 163 0
-163 -164 166 0
-163 500 165 0
-163 500 -164 0
-163 165 166 0
163 -500 -166 0
163 164 -165 0
164 -314 493 0
-164 314 0
-164 -493 0
-165 143 159 0
165 -143 0
165 -159 0
166 -314 -491 0
-166 314 0
-166 491 0
-167 -365 -168 0
-167 365 168 0
167 365 -168 0
167 -365 168 0
168 -502 -169 0
168 164 -166 0
168 164 -169 0
168 -502 -166 0
-168 502 -164 0
-168 166 169 0
169 -145 -161 0
-169 145 0
-169 161 0
-170 368 171 176 180 0
-170 -368 -171 176 180 0
170 -180 0
170 368 -171 0
170 -176 0
170 -368 171 0
-171 125 173 0
-171 -172 173 0
-171 504 173 0
171 -173 0
171 -504 -125 172 0
172 -467 -149 0
-172 467 0
-172 149 0
173 -505 174 0
-173 505 0
-173 -174 0
174 -127 175 0
-174 127 0
-174 -175 0
175 -467 -150 0
-175 467 0
-175 150 0
-176 -370 -177 0
-176 370 177 0
176 370 -177 0
176 -370 177 0
177 127 -178 0
177 -175 -178 0
177 504 -178 0
-177 178 0
-177 -504 -127 175 0
-178 507 179 0
178 -507 0
178 -179 0
179 -125 172 0
-179 125 0
-179 -172 0
-180 373 181 183 186 0
-180 -373 -181 183 186 0
180 -186 0
180 373 -181 0
180 -183 0
180 -373 181 0
-181 125 182 0
-181 -172 182 0
-181 509 182 0
181 -182 0
181 -509 -125 172 0
182 -510 174 0
-182 510 0
-182 -174 0
-183 -375 -184 0
-183 375 184 0
183 375 -184 0
183 -375 184 0
184 127 -185 0
184 -175 -185 0
184 509 -185 0
-184 185 0
-184 -509 -127 175 0
-185 512 179 0
185 -512 0
185 -179 0
-186 378 187 189 192 0
-186 -378 -187 189 192 0
186 -192 0
186 378 -187 0
186 -189 0
186 -378 187 0
-187 125 188 0
-187 -172 188 0
-187 514 188 0
187 -188 0
187 -514 -125 172 0
188 -515 174 0
-188 515 0
-188 -174 0
-189 -380 -190 0
-189 380 190 0
189 380 -190 0
189 -380 190 0
190 127 -191 0
190 -175 -191 0
190 514 -191 0
-190 191 0
-190 -514 -127 175 0
-191 517 179 0
191 -517 0
191 -179 0
-192 383 193 195 198 0
-192 -383 -193 195 198 0
192 -198 0
192 383 -193 0
192 -195 0
192 -383 193 0
-193 125 194 0
-193 -172 194 0
-193 519 194 0
193 -194 0
193 -519 -125 172 0
194 -520 174 0
-194 520 0
-194 -174 0
-195 -385 -196 0
-195 385 196 0
195 385 -196 0
195 -385 196 0
196 127 -197 0
196 -175 -197 0
196 519 -197 0
-196 197 0
-196 -519 -127 175 0
-197 522 179 0
197 -522 0
197 -179 0
-198 388 199 201 204 0
-198 -388 -199 201 204 0
198 -204 0
198 388 -199 0
198 -201 0
198 -388 199 0
-199 125 200 0
-199 -172 200 0
-199 524 200 0
199 -200 0
199 -524 -125 172 0
200 -525 174 0
-200 525 0
-200 -174 0
-201 -390 -202 0
-201 390 202 0
201 390 -202 0
201 -390 202 0
202 127 -203 0
202 -175 -203 0
202 524 -203 0
-202 203 0
-202 -524 -127 175 0
-203 527 179 0
203 -527 0
203 -179 0
-204 393 205 207 210 0
-204 -393 -205 207 210 0
204 -210 0
204 393 -205 0
204 -207 0
204 -393 205 0
-205 125 206 0
-205 -172 206 0
-205 529 206 0
205 -206 0
205 -529 -125 172 0
206 -530 174 0
-206 530 0
-206 -174 0
-207 -395 -208 0
-207 395 208 0
207 395 -208 0
207 -395 208 0
208 127 -209 0
208 -175 -209 0
208 529 -209 0
-208 209 0
-208 -529 -127 175 0
-209 532 179 0
209 -532 0
209 -179 0
-210 398 211 213 216 0
-210 -398 -211 213 216 0
210 -216 0
210 398 -211 0
210 -213 0
210 -398 211 0
-211 125 212 0
-211 -172 212 0
-211 534 212 0
211 -212 0
211 -534 -125 172 0
212 -535 174 0
-212 535 0
-212 -174 0
-213 -400 -214 0
-213 400 214 0
213 400 -214 0
213 -400 214 0
214 127 -215 0
214 -175 -215 0
214 534 -215 0
-214 215 0
-214 -534 -127 175 0
-215 537 179 0
215 -537 0
215 -179 0
-216 402 217 219 222 0
-216 -402 -217 219 222 0
216 -222 0
216 402 -217 0
216 -219 0
216 -402 217 0
-217 -128 218 0
-217 138 159 218 0
217 -218 0
217 128 -138 0
217 128 -159 0
218 -539 -126 0
-218 539 0
-218 126 0
-219 -404 -220 0
-219 404 220 0
219 404 -220 0
219 -404 220 0
220 -465 -221 0
220 -541 -221 0
220 314 -221 0
-220 221 0
-220 -314 465 541 0
-221 126 141 0
-221 126 161 0
221 -126 0
221 -141 -161 0
-222 406 223 233 240 0
-222 -406 -223 233 240 0
222 -240 0
222 406 -223 0
222 -233 0
222 -406 223 0
-223 224 -232 0
-223 224 228 0
-223 224 229 0
223 -224 0
223 -228 -229 232 0
224 -543 225 0
-224 543 0
-224 -225 0
225 -226 227 0
-225 226 0
-225 -227 0
226 -128 220 0
-226 128 0
-226 -220 0
227 -539 -150 0
-227 539 0
-227 150 0
228 -126 -217 0
-228 126 0
-228 217 0
-229 532 0
-229 230 231 0
-229 512 230 0
229 -532 -230 0
229 -512 -532 -231 0
230 -517 -522 -527 -535 0
-230 535 0
-230 517 0
-230 527 0
-230 522 0
231 -507 -517 -522 -537 0
-231 537 0
-231 507 0
-231 522 0
-231 517 0
232 541 -149 0
-232 -541 0
-232 149 0
-233 -408 -234 0
-233 408 234 0
233 408 -234 0
233 -408 234 0
234 -227 -235 0
234 -235 -237 0
234 226 -235 0
-234 235 0
-234 -226 227 237 0
-235 545 236 0
235 -545 0
235 -236 0
236 -228 232 0
-236 228 0
-236 -232 0
237 -530 0
237 -510 -238 0
237 -238 -239 0
-237 530 238 0
-237 510 530 239 0
-238 515 520 525 537 0
238 -537 0
238 -525 0
238 -515 0
238 -520 0
-239 505 515 520 535 0
239 -535 0
239 -520 0
239 -505 0
239 -515 0
-240 410 241 247 250 0
-240 -410 -241 247 250 0
240 -250 0
240 410 -241 0
240 -247 0
240 -410 241 0
-241 547 242 0
-241 242 -245 246 0
241 -242 0
241 -547 245 0
241 -547 -246 0
242 -543 -243 244 0
-242 543 0
-242 243 0
-242 -244 0
243 -314 -491 -163 0
-243 314 0
-243 491 0
-243 163 0
244 -451 493 502 0
-244 451 0
-244 -502 0
-244 -493 0
245 -314 493 168 0
-245 314 0
-245 -168 0
-245 -493 0
246 -451 -491 -500 0
-246 451 0
-246 491 0
-246 500 0
-247 -412 -248 0
-247 412 248 0
247 412 -248 0
247 -412 248 0
248 -549 249 0
248 -243 244 249 0
-248 -249 0
-248 549 243 0
-248 549 -244 0
249 545 -245 246 0
-249 -545 0
-249 245 0
-249 -246 0
-250 414 251 253 256 0
-250 -414 -251 253 256 0
250 -256 0
250 414 -251 0
250 -253 0
250 -414 251 0
-251 551 252 0
-251 126 -128 0
-251 126 252 0
-251 551 -128 0
251 -551 -126 0
251 128 -252 0
-252 147 165 0
252 -147 0
252 -165 0
-253 -416 -254 0
-253 416 254 0
253 416 -254 0
253 -416 254 0
254 -465 -255 0
254 -553 -255 0
254 314 -255 0
-254 255 0
-254 -314 465 553 0
-255 126 169 0
-255 126 152 0
255 -126 0
255 -152 -169 0
-256 418 257 261 264 0
-256 -418 -257 261 264 0
256 -264 0
256 418 -257 0
256 -261 0
256 -418 257 0
-257 -172 258 0
-257 258 259 0
-257 125 258 0
257 -258 0
257 -125 172 -259 0
258 -555 174 0
-258 555 0
-258 -174 0
259 504 509 524 -260 0
-259 260 0
-259 -524 0
-259 -504 0
-259 -509 0
260 -514 -519 -534 0
-260 514 0
-260 519 0
-260 534 0
-261 -420 -262 0
-261 420 262 0
261 420 -262 0
261 -420 262 0
262 259 -263 0
262 -175 -263 0
262 127 -263 0
-262 263 0
-262 -127 175 -259 0
-263 557 179 0
263 -557 0
263 -179 0
-264 422 265 268 272 0
-264 -422 -265 268 272 0
264 -272 0
264 422 -265 0
264 -268 0
264 -422 265 0
-265 -225 266 0
-265 559 266 0
265 -266 0
265 -559 225 0
266 -555 -228 232 -267 0
-266 267 0
-266 555 0
-266 228 0
-266 -232 0
267 -471 -474 0
-267 471 0
-267 474 0
-268 -424 -269 0
-268 424 269 0
268 424 -269 0
268 -424 269 0
269 -561 270 0
269 -236 270 0
-269 -270 0
-269 561 236 0
270 557 -226 227 271 0
-270 226 0
-270 -227 0
-270 -557 0
-270 -271 0
-271 469 476 0
271 -469 0
271 -476 0
-272 426 273 280 284 0
-272 -426 -273 280 284 0
272 -284 0
272 426 -273 0
272 -280 0
272 -426 273 0
-273 274 276 0
-273 -275 276 0
-273 559 276 0
273 -276 0
273 -559 -274 275 0
274 -126 -251 0
-274 126 0
-274 251 0
275 553 -149 0
-275 -553 0
-275 149 0
276 -563 277 0
-276 563 0
-276 -277 0
277 -278 279 0
-277 278 0
-277 -279 0
278 -128 254 0
-278 128 0
-278 -254 0
279 -551 -150 0
-279 551 0
-279 150 0
-280 -428 -281 0
-280 428 281 0
280 428 -281 0
280 -428 281 0
281 278 -282 0
281 -561 -282 0
281 -279 -282 0
-281 282 0
-281 561 -278 279 0
-282 565 283 0
282 -565 0
282 -283 0
283 -274 275 0
-283 274 0
-283 -275 0
-284 430 285 289 292 0
-284 -430 -285 289 292 0
284 -292 0
284 430 -285 0
284 -289 0
284 -430 285 0
-285 -172 286 0
-285 286 287 0
-285 125 286 0
285 -286 0
285 -125 172 -287 0
286 -567 174 0
-286 567 0
-286 -174 0
287 504 509 529 -288 0
-287 288 0
-287 -529 0
-287 -504 0
-287 -509 0
288 -514 519 534 0
-288 514 0
-288 -534 0
-288 -519 0
-289 -432 -290 0
-289 432 290 0
289 432 -290 0
289 -432 290 0
290 287 -291 0
290 -175 -291 0
290 127 -291 0
-290 291 0
-290 -127 175 -287 0
-291 569 179 0
291 -569 0
291 -179 0
-292 434 293 295 298 0
-292 -434 -293 295 298 0
292 -298 0
292 434 -293 0
292 -295 0
292 -434 293 0
-293 -225 294 0
-293 571 294 0
293 -294 0
293 -571 225 0
294 -567 -228 232 -267 0
-294 267 0
-294 567 0
-294 228 0
-294 -232 0
-295 -436 -296 0
-295 436 296 0
295 436 -296 0
295 -436 296 0
296 -573 297 0
296 -236 297 0
-296 -297 0
-296 573 236 0
297 569 -226 227 271 0
-297 226 0
-297 -227 0
-297 -569 0
-297 -271 0
-298 438 -440 299 -301 0
-298 438 440 299 301 0
-298 -438 -440 -299 -301 0
-298 -438 440 -299 301 0
298 -438 299 0
298 438 -299 0
298 440 -301 0
298 -440 301 0
-299 274 300 0
-299 -275 300 0
-299 571 300 0
299 -300 0
299 -571 -274 275 0
300 -575 277 0
-300 575 0
-300 -277 0
301 278 -302 0
301 -573 -302 0
301 -279 -302 0
-301 302 0
-301 573 -278 279 0
-302 577 283 0
302 -577 0
302 -283 0
303 442 -582 -304 0
303 -442 -582 304 0
-303 582 0
-303 -442 -304 0
-303 442 304 0
304 -305 306 0
-304 305 0
-304 -306 0
-305 489 549 577 0
-305 489 549 565 0
305 -489 0
305 -549 0
305 -565 -577 0
306 -487 -547 -575 0
306 -487 -547 -563 0
-306 487 0
-306 547 0
-306 563 575 0
-584 0
2 0
582 0
307 0
308 0
309 0
310 0
311 0
312 0
313 0
314 0
315 0
316 0
317 0
318 0
319 0
320 0
321 0
322 0
323 0
324 0
325 0
326 0
327 0
328 0
329 0
330 0
331 0
332 0
333 0
334 0
335 0
336 0
337 0
338 0
339 0
340 0
341 0
342 0
343 0
344 0
345 0
346 0
347 0
348 0
349 0
350 0
351 0
352 0
353 0
354 0
355 0
356 0
357 0
358 0
359 0
360 0
361 0
362 0
363 0
364 0
365 0
366 0
367 0
368 0
369 0
370 0
371 0
372 0
373 0
374 0
375 0
376 0
377 0
378 0
379 0
380 0
381 0
382 0
383 0
384 0
385 0
386 0
387 0
388 0
389 0
390 0
391 0
392 0
393 0
394 0
395 0
396 0
397 0
398 0
399 0
400 0
401 0
402 0
403 0
404 0
405 0
406 0
407 0
408 0
409 0
410 0
411 0
412 0
413 0
414 0
415 0
416 0
417 0
418 0
419 0
420 0
421 0
422 0
423 0
424 0
425 0
426 0
427 0
428 0
429 0
430 0
431 0
432 0
433 0
434 0
435 0
436 0
437 0
438 0
439 0
440 0
441 0
3 0
4 0
442 0
-584 0
5 0

